Route #1: 66 84 90 68
Route #2: 83 51 81
Route #3: 32 33 53 73 95 24
Route #4: 31 46 35
Route #5: 4 13 74
Route #6: 63 77 3
Route #7: 17 8
Route #8: 19 97 27
Route #9: 20 41 22 15
Route #10: 39 10 18
Route #11: 71 62 99 98 89
Route #12: 100 61 23
Route #13: 1 70 54
Route #14: 92 9 86
Route #15: 69 16 55 76
Route #16: 80 94 56 21
Route #17: 75 93
Route #18: 79 11 85 30
Route #19: 38 47 26 48 96 64 34
Route #20: 52 91 50
Route #21: 5 12 58
Route #22: 82 60 59
Route #23: 14 49 6 37 87
Route #24: 25 65 78 42 28
Route #25: 57 72 36 29 43 45 2 7
Route #26: 40 88 67 44
Cost 27591.0000
Time 16.0003